db/inputs/281551030318409117582769023830228464321.smt2
(set-logic QF_FP)
(declare-const x0 (_ FloatingPoint 8 24))
(declare-const x1 (_ FloatingPoint 8 24))
(declare-const x2 (_ FloatingPoint 8 24))
(declare-const x3 (_ FloatingPoint 8 24))
(declare-const x4 (_ FloatingPoint 8 24))
(declare-const x5 (_ FloatingPoint 8 24))
(declare-const x6 (_ FloatingPoint 8 24))
(declare-const x7 (_ FloatingPoint 8 24))
(declare-const x8 (_ FloatingPoint 8 24))
(declare-const x9 (_ FloatingPoint 8 24))
(declare-const x10 (_ FloatingPoint 8 24))
(declare-const x11 (_ FloatingPoint 8 24))
(declare-const x12 (_ FloatingPoint 8 24))
(declare-const x13 (_ FloatingPoint 8 24))
(declare-const x14 (_ FloatingPoint 8 24))
(declare-const x15 (_ FloatingPoint 8 24))
(declare-const x16 (_ FloatingPoint 8 24))
(declare-const x17 (_ FloatingPoint 8 24))
(declare-const x18 (_ FloatingPoint 8 24))
(declare-const x19 (_ FloatingPoint 8 24))
(declare-const x20 (_ FloatingPoint 8 24))
(declare-const x21 (_ FloatingPoint 8 24))
(declare-const x22 (_ FloatingPoint 8 24))
(declare-const x23 (_ FloatingPoint 8 24))
(declare-const x24 (_ FloatingPoint 8 24))
(assert (fp.leq (fp.mul RNE x5 x8) (fp.div RNE x19 x16)))
(assert (fp.eq (fp.add RNE x23 x17) (fp.add RNE x13 x16)))
(assert (fp.gt (fp.mul RNE x5 x16) (fp.div RNE x0 x19)))
(assert (fp.eq (fp.sub RNE x15 x3) (fp.sub RNE x6 x13)))
(assert (fp.leq (fp.neg x21) (fp.sub RNE x16 x14)))
(assert (fp.gt (fp.div RNE x21 x11) (fp.mul RNE x10 x20)))
(assert (fp.leq (fp.sub RNE x2 x4) (fp.add RNE x23 x0)))
(assert (fp.lt (fp.mul RNE x13 x14) (fp.sub RNE x15 x24)))
(assert (fp.gt (fp.mul RNE x18 x1) (fp.sub RNE x6 x9)))
(assert (fp.leq (fp.neg x9) (fp.mul RNE x1 x14)))
(assert (fp.eq (fp.neg x7) (fp.mul RNE x10 x3)))
(assert (fp.geq (fp.add RNE x7 x5) (fp.add RNE x16 x1)))
(assert (fp.gt (fp.mul RNE x19 x3) (fp.div RNE x16 x5)))
(assert (fp.eq (fp.sub RNE x2 x5) (fp.neg x22)))
(assert (fp.geq (fp.neg x5) (fp.mul RNE x17 x2)))
(check-sat)
