db/data/281551030318409117582769023830228464321.z3.out
sat
-------------------
327.905295251
